[440, 490, 424, 392, 372, 372, 282, 282, 276, 280, 244, 216, 132, 142, 114, 88, 88, 106, 98, 98, 86, 88, 88, 88, 86, 88, 88, 86, 86, 84, 84, 84, 84, 84, 86, 86, 86, 86, 86, 86, 86, 86, 84, 84, 86, 84, 84, 86, 84, 86, 86, 86, 84, 84, 84, 84, 86, 86, 84, 88, 86, 86, 86, 86, 86, 86, 86, 86, 86, 86, 86, 84, 84, 84, 84, 84, 84, 84, 84, 84, 84, 84, 84, 84, 84, 84, 84, 84, 84, 84, 84, 84, 84, 84, 84, 84, 84, 84, 84, 84, 84, 84, 84, 86, 86, 86, 86, 86, 84, 84, 84, 84, 84, 86, 86, 88, 84, 84, 84, 84, 84, 84, 86, 86, 86, 84, 84, 84, 84, 88, 86, 86, 86, 88, 84, 88, 84, 86, 88, 86, 88, 88, 88, 88, 84, 88, 84, 86, 86, 86, 86, 86, 84, 86, 88, 84, 84, 86, 88, 86, 86, 86, 86, 84, 86, 84, 86, 84, 84, 84, 84, 84, 84, 84, 84, 84, 84, 84, 84, 86, 86, 86, 86, 84, 84, 84, 84, 84, 84, 86, 84, 84, 84, 84, 84, 86, 84, 84, 84, 84]